branch-and-cut/resultados/C/c04.sol
1153.0
234
1 429
1 250
3 112
3 73
3 319
4 194
4 134
5 125
5 416
5 485
6 22
6 182
7 75
12 274
12 495
12 265
14 424
14 235
15 420
15 196
18 455
18 471
18 83
20 230
20 422
21 469
21 196
22 187
24 373
24 111
25 207
25 353
25 33
27 96
29 418
29 236
31 118
31 41
32 279
33 135
34 258
34 282
34 242
36 455
37 344
37 446
38 358
38 212
39 386
39 377
40 338
40 54
41 187
42 112
42 398
42 464
45 210
45 246
45 180
49 400
53 265
53 482
56 123
57 474
57 416
59 452
59 118
62 289
62 372
63 457
63 129
64 89
64 145
66 358
66 337
66 75
66 95
68 492
68 405
69 455
70 482
71 458
73 118
73 344
73 346
73 201
75 175
78 118
78 205
81 345
81 263
83 273
84 461
87 345
87 323
87 413
87 238
87 248
89 424
90 446
90 471
95 362
96 145
98 358
98 270
102 158
102 499
102 240
102 122
102 268
103 411
104 122
104 232
105 330
107 477
112 345
112 408
112 331
113 290
113 279
118 274
123 410
123 362
124 441
125 345
133 212
133 250
133 144
134 398
135 175
135 351
135 310
136 418
136 280
138 429
138 493
141 425
141 161
143 159
143 409
143 246
144 478
144 460
145 365
153 202
154 424
158 205
158 161
159 316
160 210
160 377
162 445
175 275
175 426
180 368
182 198
182 420
183 430
184 351
186 270
186 372
192 201
192 458
194 342
194 453
197 411
197 381
199 362
202 373
205 225
206 437
206 428
206 305
206 477
210 340
210 445
217 452
220 429
220 272
223 437
223 381
226 435
230 337
232 328
233 435
238 391
240 430
246 384
246 402
249 429
250 280
257 304
258 437
273 457
274 379
275 438
279 374
282 425
282 347
285 373
286 317
290 336
298 331
300 405
301 485
304 487
317 372
317 365
321 474
323 478
323 439
323 330
334 362
336 389
338 439
340 435
340 354
342 441
354 408
359 482
373 408
373 448
375 435
375 431
389 431
391 400
397 437
403 413
408 443
408 492
418 481
418 487
448 450
461 481
