branch-and-cut/resultados/C/c04.log
Set parameter Username
Academic license - for non-commercial use only - expires 2024-12-10
Set parameter LazyConstraints to value 1
Set parameter TimeLimit to value 600
Gurobi Optimizer version 10.0.0 build v10.0.0rc2 (linux64)

CPU model: Intel(R) Core(TM) i5-4590 CPU @ 3.30GHz, instruction set [SSE2|AVX|AVX2]
Thread count: 4 physical cores, 4 logical processors, using up to 4 threads

Optimize a model with 2625 rows, 625 columns and 2787 nonzeros
Model fingerprint: 0x0f803ba8
Variable types: 0 continuous, 625 integer (625 binary)
Coefficient statistics:
  Matrix range     [1e+00, 1e+00]
  Objective range  [1e+00, 1e+01]
  Bounds range     [1e+00, 1e+00]
  RHS range        [1e+00, 1e+00]
Presolve removed 2558 rows and 47 columns
Presolve time: 0.00s
Presolved: 67 rows, 578 columns, 193 nonzeros
Variable types: 0 continuous, 578 integer (578 binary)

Root relaxation: objective 4.650000e+02, 64 iterations, 0.00 seconds (0.00 work units)

    Nodes    |    Current Node    |     Objective Bounds      |     Work
 Expl Unexpl |  Obj  Depth IntInf | Incumbent    BestBd   Gap | It/Node Time

     0     0  465.00000    0    -          -  465.00000      -     -    2s
     0     0  468.00000    0    3          -  468.00000      -     -    2s
     0     0  662.00000    0    -          -  662.00000      -     -    4s
     0     0  662.00000    0    -          -  662.00000      -     -    5s
     0     0  664.00000    0    -          -  664.00000      -     -    5s
     0     0  664.00000    0    -          -  664.00000      -     -    5s
     0     0  667.00000    0    -          -  667.00000      -     -    6s
     0     0  668.00000    0    -          -  668.00000      -     -    6s
     0     0  668.00000    0    -          -  668.00000      -     -    6s
     0     0  669.00000    0    -          -  669.00000      -     -    7s
     0     0  669.00000    0    -          -  669.00000      -     -    7s
     0     0  669.00000    0    -          -  669.00000      -     -    8s
     0     0  669.00000    0    -          -  669.00000      -     -    8s
     0     0  669.00000    0    -          -  669.00000      -     -    8s
     0     0  669.00000    0    -          -  669.00000      -     -    9s
     0     0  669.00000    0    -          -  669.00000      -     -    9s
     0     0  669.00000    0    -          -  669.00000      -     -   10s
     0     0  669.00000    0    -          -  669.00000      -     -   10s
H    0     0                    1330.0000000  669.33333  49.7%     -   10s
     0     0  669.33333    0    5 1330.00000  669.33333  49.7%     -   10s
     0     0  742.00000    0    - 1330.00000  742.00000  44.2%     -   15s
     0     0  742.00000    0    - 1330.00000  742.00000  44.2%     -   15s
     0     0  742.00000    0    - 1330.00000  742.00000  44.2%     -   16s
     0     0  742.00000    0    - 1330.00000  742.00000  44.2%     -   16s
     0     0  742.00000    0    - 1330.00000  742.00000  44.2%     -   16s
     0     0  742.00000    0    - 1330.00000  742.00000  44.2%     -   17s
     0     0  743.00000    0    - 1330.00000  743.00000  44.1%     -   17s
     0     0  743.00000    0    - 1330.00000  743.00000  44.1%     -   18s
     0     0  743.00000    0    - 1330.00000  743.00000  44.1%     -   18s
     0     0  743.00000    0    - 1330.00000  743.00000  44.1%     -   18s
     0     0  743.00000    0    - 1330.00000  743.00000  44.1%     -   19s
     0     0  743.00000    0    - 1330.00000  743.00000  44.1%     -   19s
     0     0  743.00000    0    - 1330.00000  743.00000  44.1%     -   20s
     0     0  743.00000    0    - 1330.00000  743.00000  44.1%     -   20s
     0     0  743.00000    0    - 1330.00000  743.00000  44.1%     -   20s
     0     0  743.00000    0    - 1330.00000  743.00000  44.1%     -   21s
     0     0  743.00000    0    - 1330.00000  743.00000  44.1%     -   21s
     0     0  743.00000    0    - 1330.00000  743.00000  44.1%     -   21s
     0     0  743.00000    0    - 1330.00000  743.00000  44.1%     -   22s
     0     0  743.00000    0    - 1330.00000  743.00000  44.1%     -   22s
     0     0  744.00000    0    - 1330.00000  744.00000  44.1%     -   23s
     0     0  744.00000    0    - 1330.00000  744.00000  44.1%     -   23s
     0     0  744.00000    0    - 1330.00000  744.00000  44.1%     -   23s
     0     0  745.00000    0    - 1330.00000  745.00000  44.0%     -   24s
H    0     0                    1329.0000000  745.00000  43.9%     -   24s
     0     0  745.00000    0    3 1329.00000  745.00000  43.9%     -   24s
     0     0  790.00000    0    - 1329.00000  790.00000  40.6%     -   31s
     0     0  790.00000    0    - 1329.00000  790.00000  40.6%     -   31s
     0     0  790.00000    0    - 1329.00000  790.00000  40.6%     -   32s
     0     0  790.00000    0    - 1329.00000  790.00000  40.6%     -   32s
     0     0  790.00000    0    - 1329.00000  790.00000  40.6%     -   32s
H    0     0                    1292.0000000  790.00000  38.9%     -   33s
     0     0  790.00000    0    7 1292.00000  790.00000  38.9%     -   33s
     0     0  819.00000    0    - 1292.00000  819.00000  36.6%     -   34s
     0     0  819.00000    0    - 1292.00000  819.00000  36.6%     -   34s
     0     0  820.00000    0    - 1292.00000  820.00000  36.5%     -   34s
     0     0  821.00000    0    - 1292.00000  821.00000  36.5%     -   35s
     0     0  825.00000    0    - 1292.00000  825.00000  36.1%     -   35s
H    0     0                    1287.0000000  825.00000  35.9%     -   35s
     0     0  825.00000    0    4 1287.00000  825.00000  35.9%     -   35s
     0     0  847.00000    0    - 1287.00000  847.00000  34.2%     -   38s
     0     0  847.00000    0    - 1287.00000  847.00000  34.2%     -   39s
H    0     0                    1220.0000000  847.00000  30.6%     -   39s
     0     0  847.00000    0    4 1220.00000  847.00000  30.6%     -   39s
     0     0  847.00000    0    4 1220.00000  847.00000  30.6%     -   47s
     0     2  864.00000    0    8 1220.00000  864.00000  29.2%     -   52s
H   10    11                    1208.0000000  877.00000  27.4%  48.8   56s
H   14    15                    1207.0000000  877.22222  27.3%  59.6   58s
H   29    26                    1204.0000000  887.50000  26.3%  41.6   64s
H   51    48                    1203.0000000  887.50000  26.2%  28.4   72s
H   69    71                    1199.0000000  887.50000  26.0%  24.6   78s
    91   111  887.50000    8    6 1199.00000  887.50000  26.0%  20.7   84s
H  134   118                    1189.0000000  887.50000  25.4%  17.2   95s
   234   291  887.60294   27   21 1189.00000  887.50000  25.4%  13.0  117s
H  309   296                    1187.0000000  887.50000  25.2%  11.3  134s
   329   408  887.52174   37   10 1187.00000  887.50000  25.2%  10.8  138s
H  384   410                    1180.0000000  887.50000  24.8%  10.2  151s
   475   556  887.66667   47    6 1180.00000  887.50000  24.8%   9.0  172s
   638   675  887.75000   77    8 1180.00000  887.50000  24.8%   7.8  209s
   775   889  888.50000  108   11 1180.00000  887.50000  24.8%   7.3  239s
H 1010   920                    1176.0000000  887.50000  24.5%   6.5  291s
  1041   924  888.00000   99    4 1176.00000  887.50000  24.5%   6.5  298s
  1044   926  890.66667  104    5 1176.00000  887.50000  24.5%   6.4  303s
  1047   928  894.40000   43   12 1176.00000  894.40000  23.9%   6.4  311s
  1049   929  899.92181  146   16 1176.00000  899.92181  23.5%   6.4  315s
  1051   931  904.44444   13   16 1176.00000  904.44444  23.1%   6.4  320s
  1057   935  915.07048   27   31 1176.00000  915.07048  22.2%   6.4  325s
  1062   941  921.21641   12   34 1176.00000  919.82828  21.8%   7.9  334s
  1064   944  922.41465   13   37 1176.00000  921.26347  21.7%   8.0  336s
  1072   950  924.67135   14   52 1176.00000  922.52393  21.6%   8.6  340s
  1084   958  928.09974   16   50 1176.00000  923.87841  21.4%   9.9  345s
  1092   963  930.44045   17   52 1176.00000  924.58635  21.4%  11.1  350s
  1104   971  934.41850   18   60 1176.00000  924.58635  21.4%  13.2  356s
  1117   979  939.34445   20   66 1176.00000  924.58635  21.4%  15.4  360s
  1124   984  947.39384   21   57 1176.00000  924.58635  21.4%  17.1  365s
  1132   990  951.11456   22   62 1176.00000  924.58635  21.4%  18.3  370s
H 1142   994                    1173.0000000  924.58635  21.2%  20.0  376s
  1154  1004  960.70686   25   65 1173.00000  924.58635  21.2%  21.8  380s
  1161  1006  956.66425   19   68 1173.00000  924.58635  21.2%  23.0  385s
  1174  1018  967.60464   28   61 1173.00000  924.58635  21.2%  25.0  391s
  1187  1027  967.71415   31   62 1173.00000  924.58635  21.2%  26.2  397s
  1206  1043  970.80792   29   53 1173.00000  924.58635  21.2%  26.5  404s
  1214  1061  969.08034   35   66 1173.00000  924.58635  21.2%  26.9  407s
  1235  1061  970.26742   38   56 1173.00000  924.58635  21.2%  27.2  413s
  1240  1060  959.34806   21   78 1173.00000  924.58635  21.2%  27.2  415s
  1274  1087  959.36497   24   75 1173.00000  924.58635  21.2%  27.0  424s
  1281  1111  970.29188   44   58 1173.00000  924.58635  21.2%  27.1  426s
  1307  1143  970.36009   48   53 1173.00000  924.58635  21.2%  27.1  434s
  1348  1136  970.39874   52   56 1173.00000  924.58635  21.2%  27.0  445s
  1397  1198  970.45897   59   50 1173.00000  924.58635  21.2%  26.9  461s
  1433  1198  970.53039   65   55 1173.00000  924.58635  21.2%  26.9  472s
H 1464  1188                    1171.0000000  924.58635  21.0%  27.1  478s
H 1471  1193                    1166.0000000  924.58635  20.7%  27.4  480s
H 1487  1239                    1160.0000000  924.58635  20.3%  27.4  485s
H 1492  1238                    1153.0000000  924.58635  19.8%  27.4  487s
  1524  1279  970.65898   76   51 1153.00000  924.58635  19.8%  27.3  496s
  1576  1296  970.64865   82   56 1153.00000  924.58635  19.8%  27.1  511s
  1610  1337  970.69350   86   54 1153.00000  924.58635  19.8%  27.0  521s
  1663  1330  970.72947   93   53 1153.00000  924.58635  19.8%  26.9  536s
  1723  1425  970.84673  101   46 1153.00000  924.58635  19.8%  26.9  552s
  1788  1426  971.14939  109   44 1153.00000  924.58635  19.8%  26.8  570s
  1811  1425  971.22023  111   44 1153.00000  924.58635  19.8%  26.8  577s
  1889  1506  971.58620  121   43 1153.00000  924.58635  19.8%  26.7  599s

Cutting planes:
  User: 135
  Gomory: 1
  Lazy constraints: 195

Explored 1925 nodes (51909 simplex iterations) in 609.99 seconds (5.10 work units)
Thread count was 4 (of 4 available processors)

Solution count 10: 1153 1160 1166 ... 1199

Time limit reached
Best objective 1.153000000000e+03, best bound 9.250000000000e+02, gap 19.7745%

User-callback calls 5600, time in user-callback 606.60 sec
